p cnf 68 102
-1 52 -2 51 60 0 
-3 10 26 61 0 
-4 -5 60 0 
-6 -5 60 0 
-1 52 62 0 
-1 52 60 0 
-7 56 63 0 
-8 21 29 48 64 -65 -67 0 
-9 60 0 
-10 3 26 64 -65 -67 0 
-11 -12 17 22 42 61 0 
-13 60 0 
-14 39 57 60 0 
-5 60 0 
-14 39 57 63 0 
-15 60 0 
-16 60 0 
-17 12 22 42 60 0 
-7 56 -18 60 0 
-1 52 -19 60 0 
-20 60 0 
-21 8 29 48 60 0 
-11 63 0 
-22 12 17 42 64 -65 -67 0 
-13 -23 30 60 0 
-24 28 -25 60 0 
-6 -13 60 0 
-7 56 60 0 
-26 3 10 60 0 
-27 53 -28 24 64 -65 -67 0 
-4 62 0 
-29 8 21 48 62 0 
-16 -30 23 60 0 
-15 62 0 
-7 56 -18 60 0 
-20 60 0 
-1 52 -31 -2 51 60 0 
-23 30 63 0 
-23 30 61 0 
-32 -33 65 -67 0 
-1 52 -19 -34 35 47 54 60 0 
-33 60 0 
-1 52 -19 -31 -35 34 47 54 -36 49 60 0 
-23 30 -19 -31 -35 34 47 54 -36 49 -37 66 -65 -67 -25 0 
-23 30 -19 -31 -35 34 47 54 -34 35 -37 60 0 
-23 30 -19 -36 49 -20 65 -67 0 
-23 30 -19 -36 49 -20 67 -65 0 
-38 -33 60 0 
-23 30 62 0 
-39 14 57 62 0 
-9 62 0 
-40 62 0 
-6 62 0 
-41 -14 39 57 -33 60 0 
-20 60 0 
-42 12 17 22 -43 59 -44 60 0 
-33 65 -67 0 
-1 52 -45 -46 50 58 60 0 
-42 12 17 22 -30 23 60 0 
-42 12 17 22 62 0 
-21 8 29 48 -47 34 35 54 60 0 
-17 12 22 42 -47 34 35 54 60 0 
-48 8 21 29 -14 39 57 -35 34 47 54 -49 36 61 0 
-42 12 17 22 -35 34 47 54 -30 23 -50 46 58 60 0 
-33 65 -67 0 
-14 39 57 -35 34 47 54 -51 2 63 0 
-33 67 -65 0 
-12 17 22 42 -14 39 57 -47 34 35 54 61 0 
-41 -14 39 57 -47 34 35 54 60 0 
-20 60 0 
-14 39 57 -35 34 47 54 -49 36 -31 -30 23 63 0 
-52 1 -10 3 26 64 -65 -67 0 
-53 27 60 0 
-20 60 0 
-14 39 57 -49 36 -31 -30 23 63 0 
-7 56 -23 30 -35 34 47 54 -54 35 -2 51 60 0 
-33 66 -65 -67 -25 0 
-55 67 -65 0 
-30 23 67 -65 0 
-56 7 62 0 
-12 17 22 42 60 0 
-48 8 21 29 60 0 
-57 14 39 -8 21 29 48 64 -65 -67 0 
-24 28 64 -65 -67 0 
-28 24 64 -65 -67 0 
-20 60 0 
-7 56 -23 30 -2 51 60 0 
-17 12 22 42 -51 2 60 0 
-21 8 29 48 -51 2 60 0 
-48 8 21 29 -14 39 57 -49 36 -31 -30 23 61 0 
-42 12 17 22 -58 46 50 -31 -30 23 60 0 
-14 39 57 -49 36 -30 23 63 0 
-12 17 22 42 -14 39 57 -51 2 61 0 
-20 60 0 
-30 23 68 0 
-7 56 -23 30 -35 34 47 54 -54 35 -51 2 60 0 
-1 52 -35 34 47 54 -54 35 -51 2 60 0 
-20 60 0 
-49 36 60 0 
-33 67 -65 0 
-41 -14 39 57 -59 43 60 0 
-20 60 0 
